c User generated cnf file
p cnf 10 16
3 -4 8 0 
-9 1 4 0 
5 10 -8 0 
6 -2 1 0 
6 10 -1 0 
-6 9 3 0 
-6 7 3 0 
-9 7 5 0 
4 -4 1 0 
-6 3 9 0 
-10 5 8 0 
-5 4 10 0 
4 -4 3 0 
3 5 -4 0 
4 -7 2 0 
6 10 -10 0 
